
<<< setup


<<< generate

Version identifier: 22.1.1.0 | 2022-11-28 | 9160aff4d
CPXPARAM_TimeLimit                               1800
Found incumbent of value 0.000000 after 0.00 sec. (0.65 ticks)
Tried aggregator 1 time.
MIP Presolve eliminated 200 rows and 0 columns.
Reduced MIP has 24751 rows, 20100 columns, and 89200 nonzeros.
Reduced MIP has 19900 binaries, 200 generals, 0 SOSs, and 0 indicators.
Presolve time = 0.02 sec. (33.28 ticks)
Probing time = 0.01 sec. (7.87 ticks)
Tried aggregator 1 time.
Detecting symmetries...
Reduced MIP has 24751 rows, 20100 columns, and 89200 nonzeros.
Reduced MIP has 19900 binaries, 200 generals, 0 SOSs, and 0 indicators.
Presolve time = 0.02 sec. (47.13 ticks)
Probing time = 0.01 sec. (7.86 ticks)
Clique table members: 2664.
MIP emphasis: balance optimality and feasibility.
MIP search method: dynamic search.
Parallel mode: deterministic, using up to 8 threads.
Root relaxation solution time = 0.14 sec. (263.71 ticks)

        Nodes                                         Cuts/
   Node  Left     Objective  IInf  Best Integer    Best Bound    ItCnt     Gap

*     0+    0                            0.0000     4914.0000              --- 
*     0+    0                          100.0000     4914.0000              --- 
      0     0     4614.5763  3217      100.0000     4614.5763     6317     --- 
*     0+    0                          405.0000     4614.5763              --- 
      0     0     4613.2000  1438      405.0000     Cuts: 187     7013     --- 
      0     0     4612.5250  1652      405.0000     Cuts: 319     8200     --- 
      0     0     4612.2572  1724      405.0000     Cuts: 505     9018     --- 
      0     0     4612.1006  1841      405.0000     Cuts: 323     9787     --- 
*     0+    0                         1041.0000     4612.1006           343.05%
      0     0     4612.1006  1810     1041.0000     Cuts: 424    10114  343.05%
Detecting symmetries...
*     0+    0                         1208.0000     4612.1006           281.80%
      0     0     4612.1006  1745     1208.0000     Cuts: 305    10397  281.80%
*     0+    0                         1255.0000     4612.1006           267.50%
*     0+    0                         1445.0000     4612.1006           219.18%
      0     0        cutoff           1445.0000     4612.1006    10397  219.18%
      0     0     4612.1006  1718     1445.0000     Cuts: 331    10668  219.18%
      0     0     4612.1006  1694     1445.0000     Cuts: 226    10973  219.18%
      0     0     4612.1006  1790     1445.0000     Cuts: 179    11314  219.18%
*     0+    0                         1591.0000     4612.1006           189.89%
*     0+    0                         1684.0000     4612.1006           173.88%
      0     0        cutoff           1684.0000     4612.1006    11314  173.88%
*     0+    0                         3496.0000     4612.1006            31.93%
*     0+    0                         3860.0000     4611.0000            19.46%
      0     0        cutoff           3860.0000     4611.0000    11314   19.46%
Detecting symmetries...
      0     2     4612.1006  1790     3860.0000     4611.0000    11314   19.46%
Elapsed time = 5.08 sec. (9535.45 ticks, tree = 0.02 MB, solutions = 11)
      9     9     4610.9111  1697     3860.0000     4611.0000    12909   19.46%
     27    25     4610.0000  1791     3860.0000     4611.0000    18448   19.46%
     44    42     4610.1489  1851     3860.0000     4611.0000    25062   19.46%
     55     6     4609.2000  1897     3860.0000     4611.0000    12187   19.46%
     65    60     4608.2857  1686     3860.0000     4611.0000    31497   19.46%
     91    80     4608.2178  1555     3860.0000     4611.0000    37807   19.46%
    133    92     4605.3030  1709     3860.0000     4611.0000    43682   19.46%
    174   122     4609.3778  1856     3860.0000     4611.0000    51512   19.46%
    217   170     4583.3939  1702     3860.0000     4611.0000    62816   19.46%
    411   335     4595.0333  1152     3860.0000     4611.0000    86705   19.46%
Elapsed time = 7.28 sec. (12825.91 ticks, tree = 2.13 MB, solutions = 11)
    675   553     4581.0000  1375     3860.0000     4611.0000   104963   19.46%
    872   767     4581.0000  1361     3860.0000     4611.0000   121683   19.46%
   1155   963     4534.0000  1135     3860.0000     4611.0000   131774   19.46%
   1478  1333     4591.0000  1055     3860.0000     4611.0000   159112   19.46%
   1734  1397     4607.0000  1150     3860.0000     4611.0000   164023   19.46%

Performing restart 1

Repeating presolve.
Tried aggregator 1 time.
Reduced MIP has 24751 rows, 20100 columns, and 89200 nonzeros.
Reduced MIP has 19900 binaries, 200 generals, 0 SOSs, and 0 indicators.
Presolve time = 0.01 sec. (31.08 ticks)
Tried aggregator 1 time.
Reduced MIP has 24751 rows, 20100 columns, and 89200 nonzeros.
Reduced MIP has 19900 binaries, 200 generals, 0 SOSs, and 0 indicators.
Presolve time = 0.02 sec. (47.97 ticks)
Represolve time = 0.08 sec. (145.00 ticks)
   1747     0     4612.1006  3256     3860.0000    Cuts: 1450   193407   19.46%
   1747     0     4612.1006  3260     3860.0000    Cuts: 3072   195153   19.46%
   1747     0     4612.1006  2089     3860.0000    Cuts: 1097   197258   19.46%
   1747     0     4612.1006  2400     3860.0000    Cuts: 2779   198773   19.46%
   1747     0     4612.1006  2488     3860.0000    Cuts: 3330   200330   19.46%
*  1747+    0                         4547.0000     4611.0000             1.41%
   1747     0     4612.1006  1523     4547.0000     Cuts: 495   201874    1.41%
   1747     0     4612.1006  1760     4547.0000    Cuts: 2239   203151    1.41%
*  1747+    0                         4548.0000     4611.0000             1.39%
   1747     2     4612.1006   517     4548.0000     4611.0000   203151    1.39%
   1910   138     4606.0000  1084     4548.0000     4611.0000   223658    1.39%
   2237   403     4600.0000   557     4548.0000     4611.0000   240502    1.39%
*  2561+  603                         4563.0000     4611.0000             1.05%
   2628   788     4608.0000   440     4563.0000     4611.0000   256886    1.05%
*  2689+  714                         4611.0000     4611.0000             0.00%

Cover cuts applied:  7
Implied bound cuts applied:  20
Mixed integer rounding cuts applied:  12
Zero-half cuts applied:  5

Root node processing (before b&c):
  Real time             =    5.05 sec. (9522.40 ticks)
Parallel b&c, 8 threads:
  Real time             =   19.07 sec. (36361.52 ticks)
  Sync time (average)   =    1.17 sec.
  Wait time (average)   =    0.01 sec.
                          ------------
Total (root+branch&cut) =   24.11 sec. (45883.92 ticks)

<<< solve


OBJECTIVE: 4611

<<< post process


<<< done

